NAME : set5.3257920.tour
COMMENT : Length = 3257920
TYPE : TOUR
DIMENSION : 61
TOUR_SECTION
1
21
6
42
5
3
37
48
38
23
51
34
54
16
29
59
39
24
25
20
35
18
32
53
8
27
33
40
55
58
61
17
56
50
2
12
28
44
22
10
15
19
30
52
11
36
31
57
47
26
9
4
14
7
13
41
60
45
43
46
49
-1
EOF
